p cnf 60 30
44 15 -6 0
-55 59 10 0
-8 -6 56 0
-23 41 4 0
28 2 1 0
41 20 49 0
-6 -52 32 0
46 37 15 0
53 21 4 0
-58 31 -7 0
20 13 56 0
-32 -40 -12 0
-38 41 40 0
-18 -51 -58 0
53 57 -11 0
-38 -48 -5 0
-48 -52 -47 0
-32 40 -60 0
-17 30 35 0
43 60 -6 0
-13 4 45 0
-24 44 35 0
45 -23 -12 0
-3 -15 -12 0
-17 -57 2 0
-33 -45 -6 0
59 44 49 0
-31 -52 -44 0
8 24 57 0
-45 -54 33 0
